nNurses = 133;
nHours = 35;
minHours = 3;
maxHours = 19;
maxConsec = 10;
maxPresence = 8;
demand = [8, 8, 8, 7, 9, 11, 7, 8, 8, 10, 8, 10, 14, 14, 9, 6, 7, 7, 5, 5, 6, 6, 5, 8, 5, 10, 14, 11, 6, 10, 8, 8, 9, 8, 11];
